benchmark_instances/dzn_benchmark_instances/benchmark_instance_8-3.dzn
% Input: sequence of points
seq_points = [|2,2
              |3,2
              |4,2
              |5,2
              |7,2
              |4,3
              |5,3
              |7,3
              |3,4
              |4,4
              |4,5
              |5,5
              |1,6
              |2,6
              |6,6
              |1,7
              |5,0
              |6,0
              |8,0
              |8,2
              |8,3
              |8,8
              |0,6
              |0,7
              |0,8
              |0,0
             |];

num_points = 26;
